0 96 81 0 54 90 5 4 87 48 
96 0 51 13 45 28 24 2 70 43 
81 51 0 90 60 89 59 3 46 76 
0 13 90 0 64 51 2 80 31 52 
54 45 60 64 0 27 43 85 55 95 
90 28 89 51 27 0 92 25 70 61 
5 24 59 2 43 92 0 9 93 20 
4 2 3 80 85 25 9 0 36 54 
87 70 46 31 55 70 93 36 0 68 
48 43 76 52 95 61 20 54 68 0 
